numNurses = 202;
hours = 76;
demand = [43 42 43 25 27 37 29 11 44 29 34 32 36 24 15 5 18 27 49 0 15 48 35 44 8 19 24 44 30 27 48 24 44 31 26 36 28 15 32 30 18 12 14 15 28 24 27 34 0 39 41 13 39 34 44 50 46 16 41 2 48 23 43 8 49 39 10 6 47 33 35 32 15 2 46 48];
minHours = 2;
maxHours = 42;
maxConsec = 32;
maxPresence = 56;